mixintcount/benchmarks/random_v2l/3_3_19.smt2
(set-logic QF_LIA)
(set-info :ran/ran2.smt2)
(set-info :smt-lib-version 2.0)
(declare-fun x1 () Int)
(declare-fun x2 () Int)
(declare-fun x3 () Int)
(assert (<= (+ (* (- 10) x1) (* (- 9) x2) (* 7 x3) ) 8))
(assert (<= (+ (* 0 x1) (* 4 x2) (* (- 4) x3) ) 5))
(assert (<= (+ (* (- 9) x1) (* 1 x2) (* (- 3) x3) ) 2))
(assert (<= (+ (* 3 x1) (* 4 x2) (* 9 x3) ) 19))
(assert (<= (+ (* 4 x1) (* 8 x2) (* (- 6) x3) ) 16))
(assert (<= (+ (* 1 x1) (* (- 5) x2) (* 9 x3) ) (- 18)))
(assert (<= (+ (* 1 x1) (* 0 x2) (* 0 x3) ) 19))
(assert (<= (+ (* (- 1) x1) (* 0 x2) (* 0 x3) ) 19))
(assert (<= (+ (* 0 x1) (* 1 x2) (* 0 x3) ) 19))
(assert (<= (+ (* 0 x1) (* (- 1) x2) (* 0 x3) ) 19))
(assert (<= (+ (* 0 x1) (* 0 x2) (* 1 x3) ) 19))
(assert (<= (+ (* 0 x1) (* 0 x2) (* (- 1) x3) ) 19))
