mixintcount/benchmarks/random_v2l/3_3_19.in
12 5
#	x1	x2	x3;		0 = Real; 1 = Integer
	1	1	1
1	-10	-9	7	8
1	0	4	-4	5
1	-9	1	-3	2
1	3	4	9	19
1	4	8	-6	16
1	1	-5	9	-18
1	1	0	0	19
1	-1	0	0	19
1	0	1	0	19
1	0	-1	0	19
1	0	0	1	19
1	0	0	-1	19
